Gurobi Optimizer version 9.1.2 build v9.1.2rc0 (linux64)
Thread count: 36 physical cores, 72 logical processors, using up to 32 threads
Optimize a model with 12 rows, 57 columns and 590 nonzeros
Model fingerprint: 0xf32eec78
Model has 47 quadratic constraints
Coefficient statistics:
  Matrix range     [2e-05, 3e+00]
  QMatrix range    [1e+00, 1e+00]
  QLMatrix range   [1e+00, 1e+00]
  Objective range  [8e-03, 7e-01]
  Bounds range     [1e+00, 1e+00]
  RHS range        [1e+00, 1e+00]
Presolve removed 9 rows and 0 columns

Continuous model is non-convex -- solving as a MIP.

Presolve removed 9 rows and 0 columns
Presolve time: 0.00s
Presolved: 189 rows, 57 columns, 443 nonzeros
Presolved model has 47 bilinear constraint(s)
Variable types: 57 continuous, 0 integer (0 binary)

Root relaxation: objective -1.743721e+00, 44 iterations, 0.00 seconds

    Nodes    |    Current Node    |     Objective Bounds      |     Work
 Expl Unexpl |  Obj  Depth IntInf | Incumbent    BestBd   Gap | It/Node Time

     0     0   -1.74372    0   38          -   -1.74372      -     -    0s
H    0     0                       0.6147548   -1.74372   384%     -    0s
     0     0   -1.64739    0    1    0.61475   -1.64739   368%     -    0s
H    0     0                      -1.6450460   -1.64739  0.14%     -    0s
     0     0     cutoff    0        -1.64505   -1.64505  0.00%     -    0s

Cutting planes:
  RLT: 25
  BQP: 3

Explored 1 nodes (76 simplex iterations) in 0.01 seconds
Thread count was 32 (of 72 available processors)

Solution count 2: -1.64505 0.614755 
No other solutions better than -1.64505

Optimal solution found (tolerance 1.00e-04)
Best objective -1.645045978473e+00, best bound -1.645045978473e+00, gap 0.0000%

User-callback calls 78, time in user-callback 0.00 sec
Gurobi Optimizer version 9.1.2 build v9.1.2rc0 (linux64)
Thread count: 36 physical cores, 72 logical processors, using up to 32 threads
Optimize a model with 24 rows, 125 columns and 2580 nonzeros
Model fingerprint: 0xd5d35eaa
Model has 105 quadratic constraints
Coefficient statistics:
  Matrix range     [6e-06, 5e+01]
  QMatrix range    [1e+00, 1e+00]
  QLMatrix range   [1e+00, 1e+00]
  Objective range  [1e-02, 1e+00]
  Bounds range     [1e+00, 1e+00]
  RHS range        [1e+00, 1e+00]
Presolve removed 10 rows and 0 columns

Continuous model is non-convex -- solving as a MIP.

Presolve removed 10 rows and 0 columns
Presolve time: 0.00s
Presolved: 429 rows, 125 columns, 2142 nonzeros
Presolved model has 105 bilinear constraint(s)
Variable types: 125 continuous, 0 integer (0 binary)

Root relaxation: objective -4.708163e+00, 124 iterations, 0.00 seconds

    Nodes    |    Current Node    |     Objective Bounds      |     Work
 Expl Unexpl |  Obj  Depth IntInf | Incumbent    BestBd   Gap | It/Node Time

     0     0   -4.70816    0   95          -   -4.70816      -     -    0s
H    0     0                      -0.3521513   -4.70816  1237%     -    0s
     0     0   -4.01265    0   72   -0.35215   -4.01265  1039%     -    0s
H    0     0                      -1.6827424   -4.01265   138%     -    0s
     0     0   -4.01048    0   72   -1.68274   -4.01048   138%     -    0s
     0     0   -3.89018    0   77   -1.68274   -3.89018   131%     -    0s
H    0     0                      -2.4766236   -3.89018  57.1%     -    0s
     0     0   -3.88023    0   77   -2.47662   -3.88023  56.7%     -    0s
     0     0   -3.85307    0   77   -2.47662   -3.85307  55.6%     -    0s
     0     0   -3.84905    0   68   -2.47662   -3.84905  55.4%     -    0s
     0     0   -3.84496    0   66   -2.47662   -3.84496  55.3%     -    0s
     0     0   -3.84403    0   66   -2.47662   -3.84403  55.2%     -    0s
     0     0   -3.83796    0   72   -2.47662   -3.83796  55.0%     -    0s
     0     0   -3.83740    0   72   -2.47662   -3.83740  54.9%     -    0s
     0     0   -3.83710    0   72   -2.47662   -3.83710  54.9%     -    0s
     0     0   -3.83708    0   72   -2.47662   -3.83708  54.9%     -    0s
H    0     0                      -2.9719544   -3.83708  29.1%     -    0s
H    0     0                      -3.0412252   -3.83708  26.2%     -    0s
H    0     0                      -3.0735798   -3.83708  24.8%     -    0s
     0     2   -3.83708    0   72   -3.07358   -3.83708  24.8%     -    0s
*  791   564              29      -3.1222514   -3.54895  13.7%  29.9    0s
*  927   604              30      -3.1756591   -3.54895  11.8%  27.8    0s
*  945   604              32      -3.1982401   -3.54895  11.0%  27.4    0s
* 1099   677              23      -3.3219695   -3.52630  6.15%  25.8    0s
* 1241   677              22      -3.3219864   -3.52630  6.15%  24.5    0s
* 1434   480              17      -3.3253897   -3.52630  6.04%  23.0    0s
* 1609   304              22      -3.3279888   -3.36610  1.15%  21.3    0s
* 1880   104              26      -3.3284352   -3.34739  0.57%  18.5    0s
* 1881   104              26      -3.3284362   -3.34739  0.57%  18.5    0s
* 1906   104              28      -3.3286592   -3.34739  0.56%  18.3    0s
* 1917   104              25      -3.3287076   -3.34739  0.56%  18.2    0s
* 1952   104              20      -3.3288978   -3.34120  0.37%  18.0    0s
* 1953   104              20      -3.3289197   -3.34120  0.37%  17.9    0s
* 2193    10              16      -3.3289531   -3.32919  0.01%  16.2    0s
* 2195    10              17      -3.3289668   -3.32919  0.01%  16.2    0s

Cutting planes:
  RLT: 67
  BQP: 10
  PSD: 35

Explored 2307 nodes (36069 simplex iterations) in 0.66 seconds
Thread count was 32 (of 72 available processors)

Solution count 10: -3.32897 -3.32895 -3.32892 ... -3.32539
No other solutions better than -3.32897

Optimal solution found (tolerance 1.00e-04)
Best objective -3.328966756246e+00, best bound -3.328966756246e+00, gap 0.0000%

User-callback calls 4900, time in user-callback 0.00 sec



objective value: -3.328966756245857
objective bound: -3.328966756245857
x_opt: [0.0, 0.0, 1.0, 0.0, 1.0, 0.6715546827890346, 1.0, 1.0, 1.0, 0.0, 0.0, 0.1978211016134284, 0.0, 0.0, 0.0, 0.4940541717952641, 0.0, 0.0, 0.005517301964108782, 0.0]
GUROBI solution time: 0.6615638732910156




